
Gurobi 9.1.2 (linux64) logging started Sat Mar 19 12:51:23 2022

Changed value of parameter LogFile to ls_sym_v-(0, 2).log
   Prev:   Default: 
Changed value of parameter MIPFocus to 1
   Prev: 0  Min: 0  Max: 3  Default: 0
Changed value of parameter Threads to 4
   Prev: 0  Min: 0  Max: 1024  Default: 0
Changed value of parameter TimeLimit to 1800.0
   Prev: inf  Min: 0.0  Max: inf  Default: inf
Warning: variable name "X[(1, 0),(0, 0)]" has a space
Warning: constraint name "flow-constr-t0-v(0, 2)" has a space
Warning: to let Gurobi read it back, use rlp format
Gurobi Optimizer version 9.1.2 build v9.1.2rc0 (linux64)
Thread count: 16 physical cores, 32 logical processors, using up to 4 threads
Optimize a model with 3645 rows, 3264 columns and 12432 nonzeros
Model fingerprint: 0x08e185bf
Variable types: 384 continuous, 2880 integer (2880 binary)
Coefficient statistics:
  Matrix range     [1e+00, 7e+04]
  Objective range  [2e-01, 2e-01]
  Bounds range     [1e+00, 3e+04]
  RHS range        [1e+00, 7e+04]
Presolve removed 231 rows and 234 columns
Presolve time: 0.05s
Presolved: 3414 rows, 3030 columns, 22699 nonzeros
Variable types: 384 continuous, 2646 integer (2646 binary)

Root relaxation: objective 6.400000e+01, 166 iterations, 0.00 seconds

    Nodes    |    Current Node    |     Objective Bounds      |     Work
 Expl Unexpl |  Obj  Depth IntInf | Incumbent    BestBd   Gap | It/Node Time

     0     0   64.00000    0   32          -   64.00000      -     -    0s
     0     0   64.00000    0   78          -   64.00000      -     -    0s
H    0     0                     497.4999999   64.00000  87.1%     -    0s
     0     0   64.00000    0   79  497.50000   64.00000  87.1%     -    0s
H    0     0                     487.8333333   64.00000  86.9%     -    0s
     0     0   64.00000    0   39  487.83333   64.00000  86.9%     -    0s
H    0     0                     487.5000000   64.00000  86.9%     -    0s
     0     0   64.00000    0   41  487.50000   64.00000  86.9%     -    0s
H    0     0                     486.5000000   64.00000  86.8%     -    0s
H    0     0                     320.5000000   64.00000  80.0%     -    0s
     0     0   64.00000    0   34  320.50000   64.00000  80.0%     -    0s
H    0     0                     201.8333333   64.00000  68.3%     -    0s
     0     0   64.00000    0   34  201.83333   64.00000  68.3%     -    0s
     0     0   64.00000    0   40  201.83333   64.00000  68.3%     -    1s
H    0     0                     136.0000000   64.00000  52.9%     -    1s
     0     0   64.00000    0   47  136.00000   64.00000  52.9%     -    1s
     0     0   64.00000    0   28  136.00000   64.00000  52.9%     -    1s
H    0     0                     126.7916667   64.00000  49.5%     -    1s
H    0     0                     116.7500000   64.00000  45.2%     -    1s
H    0     0                     111.5229885   64.00000  42.6%     -    1s
     0     2   64.00000    0   28  111.52299   64.00000  42.6%     -    2s
H    1     4                     108.6494253   64.00000  41.1%   479    2s
H    2     4                     105.0000000   64.00000  39.0%   240    2s
H   31    37                     104.5000000   64.00000  38.8%  18.7    2s
H   32    37                     102.6666667   64.00000  37.7%  18.2    2s
H   71    74                     102.3333333   64.00000  37.5%   9.0    3s
H   72    74                      99.8666667   64.00000  35.9%   9.0    3s
H   74    74                      97.0000000   64.00000  34.0%   8.7    3s
H  145   251                      96.6666667   64.00000  33.8%   5.9    4s
H  147   251                      96.5714286   64.00000  33.7%   5.8    4s
H  147   251                      96.0000000   64.00000  33.3%   5.8    4s
H  201   251                      95.9333333   64.00000  33.3%   5.1    4s
H  270   690                      95.6000000   64.00000  33.1%   4.6    4s
H  300   690                      94.4333333   64.00000  32.2%   4.5    4s
H  739  1196                      92.1190476   64.00000  30.5%   6.0    5s
H  785  1196                      91.9666667   64.00000  30.4%   5.9    5s
H 1303  1275                      91.6666667   64.00000  30.2%   5.1    5s

Cutting planes:
  Cover: 25
  Implied bound: 30
  Clique: 3
  MIR: 3
  Flow cover: 21
  Relax-and-lift: 3

Explored 1382 nodes (15538 simplex iterations) in 5.85 seconds
Thread count was 4 (of 32 available processors)

Solution count 10: 91.6667 91.9667 92.119 ... 97

Solve interrupted
Best objective 9.166666666666e+01, best bound 6.400000000000e+01, gap 30.1818%
